c Random generated cnf formula, satisfiable: false
p cnf 10 50
10 5 1 0
9 -3 1 0
-8 -1 9 0
-3 1 5 0
-8 -4 6 0
4 1 -9 0
1 -4 8 0
2 -7 -8 0
-8 6 -2 0
6 -8 9 0
-5 -3 -1 0
-7 -8 -2 0
-3 6 2 0
8 10 2 0
-10 -8 7 0
5 2 -6 0
-4 -9 -3 0
3 9 8 0
-2 4 6 0
6 2 3 0
10 -5 6 0
-1 -10 9 0
4 -5 -9 0
1 9 -2 0
3 -10 -8 0
-1 -5 -4 0
-5 -6 8 0
10 5 -3 0
2 4 8 0
9 -10 -6 0
-4 -5 -8 0
5 -10 -3 0
-3 -10 -2 0
-9 -4 5 0
8 -2 -10 0
6 -9 7 0
-7 2 1 0
-7 -10 4 0
2 7 8 0
7 6 5 0
-4 -5 -10 0
-9 10 -4 0
-3 -9 4 0
-10 3 7 0
-4 10 5 0
5 10 -6 0
1 -6 -8 0
-2 3 7 0
5 -1 7 0
-9 6 8 0
